NAME: concorde43
TYPE: TSP
COMMENT: Generated by CCutil_writetsplib
COMMENT: Write called for by Concorde GUI
DIMENSION: 43
EDGE_WEIGHT_TYPE: EUC_2D
NODE_COORD_SECTION
1 23.582677 67.608120
2 23.425197 68.578994
3 23.543307 69.726390
4 24.055118 69.549868
5 24.370079 68.490733
6 24.448819 67.961165
7 23.700787 68.755516
8 23.858268 68.314210
9 24.251969 67.431598
10 23.858268 66.372462
11 40.551181 76.875552
12 40.472441 76.345984
13 40.314961 75.198588
14 40.669291 75.639894
15 40.984252 75.639894
16 41.102362 74.227714
17 40.433071 74.227714
18 40.748031 74.227714
19 41.417323 73.698147
20 39.488189 53.486320
21 40.196850 52.338923
22 39.055118 52.868491
23 39.212598 51.897617
24 39.685039 51.721094
25 39.685039 52.956752
26 39.960630 51.809356
27 40.039370 51.103266
28 39.448819 50.573698
29 29.881890 47.396293
30 29.448819 48.455428
31 29.212598 46.601942
32 29.212598 48.014122
33 30.078740 48.896734
34 29.685039 46.425419
35 30.866142 50.044131
36 30.944882 47.925861
37 30.984252 81.641659
38 31.614173 79.170344
39 31.299213 79.611650
40 30.708661 80.759047
41 30.393701 79.258605
42 31.181102 78.464254
43 31.850394 80.406002
