NAME: concorde102
TYPE: TSP
COMMENT: Generated by CCutil_writetsplib
COMMENT: Write called for by Concorde GUI
DIMENSION: 102
EDGE_WEIGHT_TYPE: EUC_2D
NODE_COORD_SECTION
1 17.283465 45.454545
2 17.322835 46.954987
3 17.165354 48.278906
4 17.086614 50.397176
5 17.086614 50.926743
6 17.244094 52.250662
7 17.401575 46.160635
8 17.401575 44.130627
9 17.440945 43.248014
10 17.559055 42.100618
11 17.519685 39.717564
12 17.598425 38.481906
13 17.637795 37.511033
14 17.795276 36.275375
15 13.307087 44.042365
16 14.173228 43.954104
17 14.881890 44.130627
18 15.787402 44.042365
19 16.732283 44.307149
20 17.716535 44.307149
21 18.858268 44.307149
22 20.000000 44.571933
23 20.905512 44.836717
24 15.314961 38.040600
25 16.850394 41.041483
26 17.165354 42.453663
27 18.031496 45.101500
28 19.133858 48.190644
29 19.606299 49.338041
30 20.590551 38.481906
31 19.842520 40.247132
32 18.622047 42.718447
33 16.102362 46.160635
34 14.448819 49.602824
35 14.133858 50.132392
36 13.503937 51.721094
37 20.000000 50.132392
38 20.354331 50.838482
39 21.535433 52.691968
40 21.062992 51.985878
41 22.047244 53.221536
42 22.362205 53.751103
43 22.913386 54.457193
44 23.425197 55.516328
45 24.133858 56.575463
46 25.511811 57.899382
47 26.732283 60.282436
48 24.842520 57.369815
49 20.472441 61.429832
50 21.220472 59.576346
51 21.653543 58.340688
52 22.440945 56.398941
53 23.464567 54.898500
54 23.937008 54.192410
55 24.960630 52.956752
56 26.062992 51.809356
57 26.732283 51.015004
58 23.110236 62.135922
59 22.992126 60.194175
60 22.992126 57.987643
61 22.992126 55.692851
62 22.992126 52.956752
63 22.874016 50.926743
64 23.031496 48.720212
65 23.110236 48.102383
66 18.858268 56.310680
67 20.472441 56.222418
68 21.456693 56.398941
69 23.976378 55.781112
70 25.118110 55.604590
71 25.393701 55.604590
72 26.771654 55.604590
73 28.228346 55.428067
74 20.157480 63.195057
75 19.842520 63.724625
76 18.818898 65.666372
77 18.346457 66.548985
78 17.755906 67.696381
79 17.559055 68.225949
80 16.496063 69.638129
81 15.826772 70.873786
82 15.984252 61.341571
83 17.204724 63.106796
84 18.700787 64.960282
85 19.527559 66.902030
86 20.905512 69.549868
87 21.771654 70.697264
88 20.354331 68.314210
89 19.015748 72.462489
90 18.858268 69.549868
91 18.818898 67.255075
92 18.779528 64.342454
93 18.779528 62.665490
94 18.897638 61.165049
95 18.937008 60.370697
96 13.937008 65.754634
97 16.102362 66.195940
98 17.874016 66.284201
99 19.448819 66.372462
100 20.196850 66.460724
101 21.417323 66.460724
102 21.968504 66.372462
