68 0
28.662420 69.459459
32.218684 69.594595
36.464968 68.108108
40.870488 67.972973
45.647558 67.837838
52.229299 68.783784
56.263270 69.324324
62.473461 70.000000
61.624204 64.864865
60.350318 61.756757
57.855626 50.540541
56.210191 45.135135
53.450106 34.864865
52.176221 32.297297
48.301486 22.027027
47.027601 18.513514
45.276008 14.594595
43.683652 10.000000
28.397028 67.567568
29.989384 61.081081
31.316348 55.135135
32.271762 50.675676
33.811040 44.864865
34.607219 42.297297
35.562633 38.783784
38.428875 31.216216
39.278132 26.756757
40.870488 20.810811
42.038217 16.621622
43.259023 12.297297
25.902335 26.081081
33.970276 22.702703
36.093418 23.108108
38.004246 23.243243
41.719745 22.702703
46.868365 22.432432
52.388535 21.216216
56.847134 20.945946
60.244161 20.270270
64.543524 20.270270
63.588110 22.432432
60.881104 32.027027
59.501062 36.216216
57.696391 43.108108
55.573248 51.756757
53.980892 57.297297
50.636943 68.108108
49.840764 70.810811
47.558386 78.108108
47.133758 80.675676
45.382166 85.945946
43.895966 81.351351
42.781316 78.378378
40.445860 71.081081
39.543524 68.513514
37.845011 62.567568
36.783439 59.729730
35.934183 55.405405
34.554140 50.675676
32.961783 45.810811
30.997877 40.810811
29.670913 35.540541
28.503185 33.648649
27.707006 30.270270
26.910828 28.243243
27.335456 24.864865
30.626327 24.459459
32.643312 23.108108
