NAME: concorde100
TYPE: TSP
COMMENT: Generated by CCutil_writetsplib
COMMENT: Write called for by Concorde GUI
DIMENSION: 100
EDGE_WEIGHT_TYPE: EUC_2D
NODE_COORD_SECTION
1 48.726115 44.324324
2 48.779193 48.783784
3 48.566879 52.702703
4 48.354565 57.567568
5 48.354565 61.891892
6 48.142251 65.540541
7 48.142251 69.459459
8 47.876858 73.243243
9 47.876858 77.027027
10 47.876858 82.837838
11 48.566879 42.432432
12 48.779193 39.594595
13 48.832272 37.567568
14 48.938429 35.270270
15 48.991507 32.837838
16 48.991507 30.135135
17 49.256900 27.162162
18 49.363057 23.243243
19 49.681529 18.918919
20 49.681529 13.783784
21 47.717622 43.783784
22 46.390658 44.594595
23 44.692144 44.189189
24 42.993631 43.783784
25 41.932059 43.648649
26 40.764331 43.918919
27 39.543524 43.918919
28 38.481953 43.918919
29 36.836518 44.864865
30 35.562633 44.459459
31 49.469214 44.594595
32 51.592357 44.594595
33 52.653928 45.135135
34 54.564756 45.135135
35 55.573248 45.135135
36 56.581741 45.270270
37 57.802548 45.405405
38 59.235669 45.540541
39 60.881104 46.081081
40 61.836518 45.675676
41 49.840764 47.297297
42 50.318471 49.864865
43 50.690021 51.621622
44 51.220807 53.243243
45 51.910828 55.135135
46 52.441614 57.297297
47 53.025478 59.324324
48 53.715499 61.756757
49 54.352442 63.918919
50 54.936306 66.351351
51 55.732484 68.513514
52 56.263270 70.675676
53 56.581741 72.567568
54 57.165605 74.324324
55 57.908705 76.216216
56 47.876858 41.621622
57 47.133758 40.135135
58 46.602972 37.837838
59 45.806794 35.675676
60 45.276008 34.054054
61 44.745223 32.297297
62 44.267516 30.810811
63 43.630573 29.594595
64 42.569002 26.216216
65 43.046709 28.378378
66 41.878981 24.729730
67 41.135881 22.567568
68 40.445860 20.405405
69 39.702760 19.054054
70 39.118896 17.297297
71 47.983015 46.486486
72 47.399151 47.972973
73 46.549894 49.459459
74 45.647558 51.216216
75 44.904459 52.567568
76 44.161359 53.918919
77 43.418259 55.810811
78 42.515924 57.297297
79 41.825902 58.783784
80 41.242038 60.405405
81 40.870488 61.351351
82 40.339703 62.027027
83 39.384289 64.324324
84 38.057325 65.675676
85 37.101911 67.837838
86 49.309979 43.918919
87 49.840764 42.972973
88 50.318471 42.027027
89 50.849257 40.945946
90 51.698514 39.729730
91 52.016985 39.189189
92 52.866242 37.162162
93 53.503185 36.216216
94 53.980892 35.270270
95 54.511677 34.189189
96 55.360934 33.108108
97 55.944798 32.027027
98 56.687898 30.540541
99 57.165605 29.459459
100 57.961783 27.837838
