NAME: concorde85
TYPE: TSP
COMMENT: Generated by CCutil_writetsplib
COMMENT: Write called for by Concorde GUI
DIMENSION: 85
EDGE_WEIGHT_TYPE: EUC_2D
NODE_COORD_SECTION
1 42.622081 59.054054
2 42.675159 62.162162
3 43.152866 65.405405
4 44.002123 71.891892
5 44.426752 75.945946
6 45.116773 79.324324
7 45.966030 83.243243
8 47.027601 79.594595
9 48.036093 74.054054
10 49.469214 68.378378
11 50.530786 59.729730
12 51.910828 52.162162
13 52.813163 47.567568
14 54.458599 35.675676
15 54.883227 33.783784
16 56.210191 24.864865
17 57.218684 21.216216
18 58.067941 15.675676
19 58.386412 8.243243
20 58.545648 6.081081
21 56.528662 7.432432
22 54.405520 9.594595
23 53.131635 13.108108
24 50.530786 18.513514
25 50.053079 19.594595
26 47.452229 25.135135
27 45.647558 29.729730
28 44.532909 32.162162
29 41.878981 36.891892
30 40.339703 40.540541
31 37.579618 44.864865
32 36.252654 47.162162
33 33.227176 52.837838
34 40.764331 37.702703
35 34.554140 55.000000
36 35.881104 55.540541
37 38.906582 55.945946
38 39.808917 56.621622
39 42.675159 56.216216
40 43.471338 56.216216
41 46.337580 56.216216
42 47.717622 55.945946
43 49.628450 55.945946
44 51.326964 55.945946
45 53.184713 56.621622
46 56.210191 57.432432
47 57.590234 57.567568
48 59.819533 57.027027
49 61.199575 56.621622
50 61.889597 55.405405
51 60.350318 51.621622
52 59.288747 49.324324
53 56.581741 42.972973
54 55.679406 41.351351
55 53.397028 35.675676
56 52.229299 32.162162
57 50.743100 29.459459
58 49.309979 25.810811
59 48.885350 24.594595
60 47.717622 20.945946
61 47.133758 19.729730
62 44.479830 11.891892
63 44.957537 14.324324
64 45.435244 15.270270
65 45.966030 17.837838
66 44.267516 11.216216
67 42.409766 8.648649
68 41.348195 6.486486
69 40.392781 4.459459
70 38.959660 2.837838
71 34.394904 50.270270
72 38.428875 5.000000
73 38.481953 9.054054
74 38.588110 13.513514
75 39.012739 18.108108
76 39.331210 22.567568
77 40.021231 28.513514
78 40.392781 31.216216
79 40.976645 35.810811
80 41.560510 40.540541
81 42.675159 48.918919
82 42.250531 47.702703
83 42.038217 43.918919
84 42.515924 52.567568
85 42.569002 54.864865
