NAME: concorde84
TYPE: TSP
COMMENT: Generated by CCutil_writetsplib
COMMENT: Write called for by Concorde GUI
DIMENSION: 84
EDGE_WEIGHT_TYPE: EUC_2D
NODE_COORD_SECTION
1 26.299213 70.079435
2 26.141732 73.080318
3 26.062992 75.992939
4 25.984252 80.759047
5 27.440945 80.847308
6 29.409449 80.670786
7 30.826772 80.847308
8 32.165354 80.670786
9 34.015748 80.935569
10 35.787402 80.935569
11 37.283465 80.494263
12 38.543307 80.847308
13 39.724409 80.847308
14 39.291339 69.814651
15 39.291339 72.462489
16 39.212598 74.933804
17 38.976378 76.699029
18 37.795276 76.699029
19 37.125984 76.610768
20 36.062992 76.699029
21 28.464567 70.432480
22 28.503937 72.462489
23 28.700787 75.022065
24 29.409449 76.081200
25 30.984252 76.081200
26 31.968504 75.816417
27 32.283465 74.227714
28 32.362205 73.433363
29 32.165354 72.021183
30 32.283465 69.991174
31 32.362205 67.519859
32 32.401575 65.578111
33 32.519685 63.548102
34 32.401575 62.312445
35 32.440945 60.105914
36 32.401575 57.899382
37 32.401575 55.428067
38 32.244094 52.162401
39 32.322835 50.132392
40 32.440945 48.190644
41 32.204724 45.542807
42 32.244094 43.424537
43 31.535433 42.983230
44 30.393701 43.336275
45 29.724409 43.777582
46 35.078740 76.699029
47 35.039370 74.845543
48 35.118110 72.903795
49 35.118110 70.255958
50 35.157480 68.314210
51 35.196850 66.019417
52 35.196850 64.165931
53 35.236220 61.871139
54 35.236220 60.282436
55 35.157480 58.428950
56 35.236220 56.663725
57 35.354331 54.368932
58 35.275591 52.956752
59 35.196850 50.750221
60 35.275591 48.102383
61 35.039370 45.984113
62 35.118110 43.865843
63 35.551181 42.894969
64 40.511811 80.847308
65 41.417323 81.023831
66 41.456693 79.170344
67 41.456693 76.522507
68 41.574803 74.492498
69 41.535433 72.021183
70 41.614173 70.344219
71 36.417323 44.042365
72 37.165354 43.777582
73 37.795276 43.865843
74 38.425197 43.865843
75 29.566929 38.746690
76 30.275591 38.570168
77 31.377953 38.746690
78 32.834646 38.834951
79 33.779528 38.834951
80 35.039370 39.011474
81 36.141732 39.364519
82 37.125984 39.187996
83 38.149606 39.187996
84 38.582677 39.541041
