NAME: concorde39
TYPE: TSP
COMMENT: Generated by CCutil_writetsplib
COMMENT: Write called for by Concorde GUI
DIMENSION: 39
EDGE_WEIGHT_TYPE: EUC_2D
NODE_COORD_SECTION
1 34.330709 97.263901
2 34.803150 95.145631
3 36.181102 92.409532
4 36.771654 91.350397
5 37.952756 88.349515
6 38.188976 86.407767
7 37.322835 83.406884
8 36.811024 81.994704
9 35.944882 78.993822
10 35.236220 75.639894
11 34.606299 71.932921
12 34.645669 69.196823
13 35.551181 66.725508
14 36.732283 64.783760
15 38.070866 61.871139
16 39.015748 59.576346
17 40.000000 56.398941
18 39.842520 53.839365
19 38.503937 50.308914
20 37.519685 47.749338
21 36.102362 44.571933
22 34.842520 42.277140
23 39.015748 97.087379
24 38.543307 94.527802
25 37.559055 91.879965
26 36.692913 90.114740
27 35.314961 86.849073
28 34.645669 84.289497
29 36.417323 78.022948
30 37.362205 76.345984
31 38.897638 71.756399
32 39.015748 70.344219
33 38.346457 67.343336
34 37.086614 65.048544
35 35.314961 61.253310
36 34.173228 58.428950
37 34.645669 52.074139
38 36.102362 47.572816
39 38.110236 41.835834
