NAME: concorde79
TYPE: TSP
COMMENT: Generated by CCutil_writetsplib
COMMENT: Write called for by Concorde GUI
DIMENSION: 79
EDGE_WEIGHT_TYPE: EUC_2D
NODE_COORD_SECTION
1 45.000000 53.221536
2 44.566929 52.603707
3 44.055118 53.486320
4 44.055118 55.163283
5 44.527559 56.222418
6 45.669291 56.487202
7 46.102362 55.604590
8 46.299213 53.574581
9 46.299213 51.544572
10 45.708661 49.955869
11 44.448819 48.720212
12 43.307087 49.426302
13 42.480315 50.926743
14 42.007874 53.751103
15 41.889764 56.575463
16 42.047244 59.223301
17 42.913386 61.518094
18 43.976378 63.018535
19 45.196850 63.901147
20 46.692913 64.607237
21 48.228346 63.724625
22 49.212598 62.047661
23 49.842520 58.958517
24 50.354331 56.045896
25 50.590551 52.956752
26 50.551181 49.691086
27 49.921260 46.601942
28 48.937008 44.130627
29 47.362205 42.453663
30 44.881890 41.924095
31 43.346457 42.365402
32 41.811024 44.395410
33 40.551181 47.219771
34 39.488189 50.926743
35 39.055118 54.104148
36 38.818898 57.634598
37 38.818898 61.694616
38 38.976378 64.342454
39 39.291339 67.166814
40 40.000000 68.932039
41 41.220472 71.138570
42 42.244094 72.197705
43 43.976378 73.080318
44 46.220472 74.669020
45 47.637795 74.227714
46 49.330709 73.786408
47 51.259843 73.080318
48 52.913386 71.579876
49 54.291339 69.814651
50 55.590551 68.578994
51 56.338583 67.519859
52 57.559055 65.136805
53 58.543307 61.518094
54 58.779528 58.693733
55 59.015748 53.839365
56 58.897638 48.896734
57 58.858268 44.395410
58 58.425197 39.805825
59 57.480315 36.010591
60 56.417323 32.744925
61 55.039370 29.567520
62 52.283465 26.478376
63 50.393701 24.889673
64 47.755906 23.565755
65 45.354331 22.859665
66 42.913386 23.036187
67 39.566929 24.448367
68 37.519685 27.096205
69 34.015748 34.598411
70 32.283465 40.600177
71 30.944882 45.454545
72 30.314961 51.191527
73 29.448819 56.663725
74 28.740157 63.548102
75 27.362205 70.079435
76 26.850394 78.111209
77 26.496063 84.995587
78 28.070866 91.703442
79 33.976378 98.587820
